c   #vars: 34   #clauses: 151   #literals: 456
c 
p cnf 34 151
13 -19 -20 -25 0
1 -18 30 31 0
-2 -3 0
-4 -5 0
6 7 -10 -11 0
-6 -7 0
-8 -9 0
-10 -11 0
4 5 14 -28 0
-8 21 22 27 0
-10 -11 -25 -26 0
-8 23 24 34 0
-15 -16 0
-17 -18 0
-19 -20 0
-6 -7 10 11 0
-21 -22 0
-23 -24 0
4 5 13 -25 0
-25 -26 0
10 11 23 24 0
-28 -29 0
-6 -11 -25 -26 0
-30 -31 0
4 5 28 29 0
-32 -33 0
8 9 -15 27 0
17 18 30 31 0
-1 -17 0
-4 13 -19 -20 0
-15 19 20 27 0
-1 -30 0
13 -25 30 31 0
-8 19 20 27 0
-1 -32 0
-4 13 30 31 0
1 17 18 -33 0
19 20 -21 27 0
-8 21 22 34 0
-6 -7 -25 -26 0
1 17 18 -31 0
-21 23 24 34 0
-3 -14 0
1 30 31 -33 0
13 25 26 -30 0
15 16 -19 27 0
15 16 30 31 0
-2 -30 0
-3 -31 0
17 18 32 33 0
-2 -32 0
-3 -33 0
-5 -13 0
1 -31 32 33 0
-5 -14 0
10 11 32 33 0
-4 -17 0
-5 -18 0
2 3 32 33 0
-4 -28 0
-5 -29 0
-2 -3 4 5 0
-8 15 16 27 0
8 9 -19 27 0
6 7 -10 -11 -26 0
4 5 13 -30 0
2 3 30 31 0
6 7 25 26 0
-6 -19 0
-7 -20 0
-6 -21 0
-7 -22 0
-4 13 25 26 0
-6 -25 0
-7 -26 0
8 9 17 18 0
-8 -17 0
-9 -18 0
-8 -21 0
-9 -22 0
15 16 28 29 0
-8 -23 0
-9 -24 0
-9 -27 0
-8 -28 0
-9 -29 0
-9 -34 0
12 15 16 -30 0
4 5 17 18 0
12 -15 23 24 0
-2 14 28 29 0
12 15 16 -23 0
15 16 -21 27 0
10 11 19 20 0
-10 -19 0
-11 -20 0
21 22 -23 34 0
-10 -23 0
-11 -24 0
6 7 19 20 0
-10 -25 0
-11 -26 0
-10 -32 0
-11 -33 0
-2 4 5 14 0
-12 -16 0
8 9 23 24 0
2 3 -4 -5 0
-12 -24 0
10 11 25 26 0
-6 -7 10 11 -26 0
-12 -31 0
12 23 24 -30 0
12 -15 30 31 0
2 3 14 -28 0
12 -23 30 31 0
2 3 -4 14 0
8 9 28 29 0
8 9 -21 27 0
-15 21 22 27 0
-4 14 28 29 0
-13 -26 0
13 -19 -20 -30 0
-13 -31 0
-14 -29 0
6 7 21 22 0
-16 -27 0
8 9 21 22 0
-15 -28 0
-16 -29 0
-15 -30 0
-16 -31 0
17 18 25 26 0
-17 -25 0
-18 -26 0
19 20 25 26 0
-17 -30 0
-18 -31 0
-7 -10 -25 -26 0
-17 -32 0
-18 -33 0
-19 21 22 27 0
-19 -25 0
-20 -26 0
8 9 -23 34 0
-20 -27 0
8 9 -21 34 0
-22 -27 0
1 -18 32 33 0
-22 -34 0
-24 -34 0
